NAME : kroD100.9450.tour
COMMENT : Length = 9450
COMMENT : Found by LKH [Keld Helsgaun] Wed May 29 17:05:39 2013
TYPE : TOUR
DIMENSION : 20
TOUR_SECTION
34
17
90
42
36
7
80
65
86
82
47
10
55
37
62
77
54
15
84
81
-1
EOF
